1574.83
0 92 45 72 56 38 95 32 21 65 53 85 5 82 49 83 93 98 55 16 6 84 70 48 1 33 9 99 26 61 51 66 36 75 35 41 18 20 11 54 25 44 89 52 7 71 10 94 31 78 29 17 64 3 34 8 63 68 47 42 50 28 97 59 62 37 30 46 14 13 22 96 67 2 58 86 40 15 79 12 27 4 69 19 57 43 24 88 87 76 81 60 80 90 73 77 39 91 23 74
